100
1000
200
200
199
198
197
197
196
195
195
195
193
193
192
191
191
190
190
189
189
187
187
186
186
185
185
185
184
184
183
183
182
182
182
181
180
180
178
177
177
177
176
176
175
175
175
175
174
174
174
174
173
173
173
172
169
169
169
169
168
167
167
167
167
167
166
166
165
165
165
165
164
164
163
163
162
162
161
161
161
160
159
159
158
158
158
157
157
156
155
155
155
154
153
153
153
152
152
151
151
151
